20190611 150 0 0 0
20180621 50 2000 0 0
20171025 50 0 0 0
20160602 60 7000 0 0
20150601 50 0 0 0
20140617 40 0 0 0
20130531 80 5000 0 0
20120605 100 0 0 0
20110603 70 5000 0 0
20100601 30 0 0 0
20090624 20 0 0 0
20080507 0 3000 0 0
20070703 30 1000 0 0
20060605 0 3200 0 0
20040416 60 3000 0 0
